c Command line: hgen8 205 40
p cnf 205 319
62 63 45 80 0
16 92 46 99 0
83 165 94 22 0
14 77 36 7 0
49 72 170 67 0
91 23 90 2 0
84 167 30 44 0
114 29 17 129 0
175 198 195 121 0
122 100 19 162 0
10 11 21 176 0
86 205 38 35 0
9 156 139 204 0
127 26 113 55 0
66 183 108 116 0
155 126 27 128 0
24 93 61 70 0
102 73 51 161 0
146 145 140 119 0
196 107 25 152 0
149 163 64 124 0
87 188 96 105 0
186 181 48 31 0
171 97 47 1 0
178 185 138 130 0
200 159 153 131 0
117 3 150 82 0
194 189 37 39 0
18 75 71 95 0
151 137 184 154 0
20 34 32 109 0
133 41 57 197 0
192 89 50 104 0
190 179 43 106 0
112 148 59 5 0
182 135 103 4 0
132 111 54 142 0
42 125 169 101 0
147 76 120 173 0
85 69 60 187 0
136 193 65 6 0
166 74 141 28 0
-1 -2 0
-1 -3 0
-1 -4 0
-1 -5 0
-2 -3 0
-2 -4 0
-2 -5 0
-3 -4 0
-3 -5 0
-4 -5 0
-6 -7 0
-6 -9 0
-6 -10 0
-7 -9 0
-7 -10 0
-9 -10 0
-11 -14 0
-16 -17 0
-16 -18 0
-16 -19 0
-16 -20 0
-17 -18 0
-17 -19 0
-17 -20 0
-18 -19 0
-18 -20 0
-19 -20 0
-21 -22 0
-21 -23 0
-21 -24 0
-21 -25 0
-22 -23 0
-22 -24 0
-22 -25 0
-23 -24 0
-23 -25 0
-24 -25 0
-26 -27 0
-26 -28 0
-26 -29 0
-26 -30 0
-27 -28 0
-27 -29 0
-27 -30 0
-28 -29 0
-28 -30 0
-29 -30 0
-31 -32 0
-31 -34 0
-31 -35 0
-32 -34 0
-32 -35 0
-34 -35 0
-36 -37 0
-36 -38 0
-36 -39 0
-37 -38 0
-37 -39 0
-38 -39 0
-41 -42 0
-41 -43 0
-41 -44 0
-41 -45 0
-42 -43 0
-42 -44 0
-42 -45 0
-43 -44 0
-43 -45 0
-44 -45 0
-46 -47 0
-46 -48 0
-46 -49 0
-46 -50 0
-47 -48 0
-47 -49 0
-47 -50 0
-48 -49 0
-48 -50 0
-49 -50 0
-51 -54 0
-51 -55 0
-54 -55 0
-57 -59 0
-57 -60 0
-59 -60 0
-61 -62 0
-61 -63 0
-61 -64 0
-61 -65 0
-62 -63 0
-62 -64 0
-62 -65 0
-63 -64 0
-63 -65 0
-64 -65 0
-66 -67 0
-66 -69 0
-66 -70 0
-67 -69 0
-67 -70 0
-69 -70 0
-71 -72 0
-71 -73 0
-71 -74 0
-71 -75 0
-72 -73 0
-72 -74 0
-72 -75 0
-73 -74 0
-73 -75 0
-74 -75 0
-76 -77 0
-76 -80 0
-77 -80 0
-82 -83 0
-82 -84 0
-82 -85 0
-83 -84 0
-83 -85 0
-84 -85 0
-86 -87 0
-86 -89 0
-86 -90 0
-87 -89 0
-87 -90 0
-89 -90 0
-91 -92 0
-91 -93 0
-91 -94 0
-91 -95 0
-92 -93 0
-92 -94 0
-92 -95 0
-93 -94 0
-93 -95 0
-94 -95 0
-96 -97 0
-96 -99 0
-96 -100 0
-97 -99 0
-97 -100 0
-99 -100 0
-101 -102 0
-101 -103 0
-101 -104 0
-101 -105 0
-102 -103 0
-102 -104 0
-102 -105 0
-103 -104 0
-103 -105 0
-104 -105 0
-106 -107 0
-106 -108 0
-106 -109 0
-107 -108 0
-107 -109 0
-108 -109 0
-111 -112 0
-111 -113 0
-111 -114 0
-112 -113 0
-112 -114 0
-113 -114 0
-116 -117 0
-116 -119 0
-116 -120 0
-117 -119 0
-117 -120 0
-119 -120 0
-121 -122 0
-121 -124 0
-121 -125 0
-122 -124 0
-122 -125 0
-124 -125 0
-126 -127 0
-126 -128 0
-126 -129 0
-126 -130 0
-127 -128 0
-127 -129 0
-127 -130 0
-128 -129 0
-128 -130 0
-129 -130 0
-131 -132 0
-131 -133 0
-131 -135 0
-132 -133 0
-132 -135 0
-133 -135 0
-136 -137 0
-136 -138 0
-136 -139 0
-136 -140 0
-137 -138 0
-137 -139 0
-137 -140 0
-138 -139 0
-138 -140 0
-139 -140 0
-141 -142 0
-141 -145 0
-142 -145 0
-146 -147 0
-146 -148 0
-146 -149 0
-146 -150 0
-147 -148 0
-147 -149 0
-147 -150 0
-148 -149 0
-148 -150 0
-149 -150 0
-151 -152 0
-151 -153 0
-151 -154 0
-151 -155 0
-152 -153 0
-152 -154 0
-152 -155 0
-153 -154 0
-153 -155 0
-154 -155 0
-156 -159 0
-161 -162 0
-161 -163 0
-161 -165 0
-162 -163 0
-162 -165 0
-163 -165 0
-166 -167 0
-166 -169 0
-166 -170 0
-167 -169 0
-167 -170 0
-169 -170 0
-171 -173 0
-171 -175 0
-173 -175 0
-176 -178 0
-176 -179 0
-178 -179 0
-181 -182 0
-181 -183 0
-181 -184 0
-181 -185 0
-182 -183 0
-182 -184 0
-182 -185 0
-183 -184 0
-183 -185 0
-184 -185 0
-186 -187 0
-186 -188 0
-186 -189 0
-186 -190 0
-187 -188 0
-187 -189 0
-187 -190 0
-188 -189 0
-188 -190 0
-189 -190 0
-192 -193 0
-192 -194 0
-192 -195 0
-193 -194 0
-193 -195 0
-194 -195 0
-196 -197 0
-196 -198 0
-196 -200 0
-197 -198 0
-197 -200 0
-198 -200 0
-204 -205 0
